38 14
2 507
3 421
1 168
5 410
3 982
4 402
3 475
11 324
12 115
6 847
3 64
4 258
3 978
10 554
6 834
8 654
11 708
2 478
8 686
11 77
9 114
3 672
11 938
10 680
6 176
6 156
5 942
7 484
11 993
13 742
7 82
4 780
1 215
12 232
11 980
7 202
7 168
4 906
